db/data/38074361832993582729931571505821711.z3.out
-------------------
2500.130690961
